(set-info :smt-lib-version 2.6)
(set-logic UFLIRA)
(set-info :source |
Generated by: Geoff Sutcliffe
Generated on: 2026-03-11
Generator: TPTPWorld
Application: Benchmarking automated theorem provers
Time limit: 120.0

These benchmarks are translations from the TPTP Library (Thousands of
Problems for Theorem Provers), see http://www.cs.miami.edu/~tptp/

The TPTP is maintained by Geoff Sutcliffe, and he contributed this
selection of benchmarks to SMT-LIB.  They were exported from the
v9.2.1 realease of TPTP.
|)
(set-info :category "industrial")
(set-info :status "unknown")
; SZS status Success
(declare-sort $$unsorted 0)
(assert (not (exists ((X Real) (Y Real)) (and (is_int X) (<= (+ (* (/ (- 3) 2) X) Y) (/ 1 4)) (<= (+ (* 4.0 X) Y) (/ 61 2)) (<= (+ X (* (/ (- 5) 2) Y)) (- 13.0))))))
(check-sat)
